SCIP version 5.0.0 [precision: 8 byte] [memory: block] [mode: optimized] [LP solver: NONE] [GitHash: 3bbd232]
Copyright (C) 2002-2017 Konrad-Zuse-Zentrum fuer Informationstechnik Berlin (ZIB)

External codes: 
  Readline EditLine w  GNU library for command line editing (gnu.org/s/readline)
  CppAD 20160000.1     Algorithmic Differentiation of C++ algorithms developed by B. Bell (www.coin-or.org/CppAD)
  ZLIB 1.2.5           General purpose compression library by J. Gailly and M. Adler (zlib.net)
  GMP 6.1.2            GNU Multiple Precision Arithmetic Library developed by T. Granlund (gmplib.org)

user parameter file <scip.set> not found - using default parameters

read problem <../../Split_data/output/spectf/6/4_sample_spectf.logreg>
============

File name	:	../../Split_data/output/spectf/6/4_sample_spectf.logreg
Problem name 	:	4_sample_spectf
Number of data	:	213
Number of var	:	44
The given data has linear independence

[dim=1] time: 0.008008
[dim=2] time: 0.016633
[dim=3] time: 0.024478
[dim=4] time: 0.031
[dim=5] time: 0.037752
[dim=6] time: 0.044623
[dim=7] time: 0.050851
[dim=8] time: 0.056715
[dim=9] time: 0.062545
[dim=10] time: 0.068358
[dim=11] time: 0.073976
[dim=12] time: 0.079307
[dim=13] Time of forward = 0.084421sec.
AIC: 115.897
k: 12

[dim=44] time: 0.031933
[dim=43] time: 0.04821
[dim=42] time: 0.062851
[dim=41] time: 0.083221
[dim=40] time: 0.100148
[dim=39] time: 0.116671
[dim=38] time: 0.129745
[dim=37] time: 0.142729
[dim=36] time: 0.153842
[dim=35] time: 0.164242
[dim=34] time: 0.174645
[dim=33] time: 0.186125
[dim=32] time: 0.196762
[dim=31] time: 0.20659
[dim=30] time: 0.216807
[dim=29] time: 0.227645
[dim=28] time: 0.235331
[dim=27] time: 0.245313
[dim=26] time: 0.255102
[dim=25] time: 0.265958
[dim=24] time: 0.278509
[dim=23] time: 0.286483
[dim=22] time: 0.292659
[dim=21] time: 0.29803
[dim=20] Time of backward = 0.304104sec.
AIC: 119.443
k: 21
